#===============================================================================
# Created using the Atomic Simulation Environment (ASE)

# Mon Sep 22 17:03:46 2025

#=======================================================
lattice_vector 11.4160000000000004 0.0000000000000000 0.0000000000000000 
lattice_vector 0.0000000000000000 6.5979999999999999 0.0000000000000000 
lattice_vector -1.1205444379343117 0.0000000000000000 11.4281962339913683 
atom 1.6706750871080533 3.7199523999999995 0.7748317046646146 C
atom 9.1850526939247903 0.4209524000000005 4.9392664123310697 C
atom 8.6247804749576353 2.8780476000000004 10.6533645293267547 C
atom 1.1104028681408975 6.1770475999999999 6.4889298216602986 C
atom 2.8031536633899714 3.2231229999999997 0.0994253072357249 C
atom 8.0525741176428749 6.5221229999999997 5.6146728097599592 C
atom 7.4923018986757182 3.3748770000000006 11.3287709267556433 C
atom 2.2428814444228156 0.0758770000000001 5.8135234242314091 C
atom 3.3577486058257264 2.0255860000000001 0.4742701437106418 C
atom 7.4979791752071172 5.3245860000000000 5.2398279732850428 C
atom 6.9377069562399614 4.5724139999999993 10.9539260902807261 C
atom 2.7974763868585706 1.2734139999999996 6.1883682607063255 C
atom 2.8198420275416285 1.2879296000000000 1.5359495738484399 C
atom 8.0358857534912165 4.5869296000000004 4.1781485431472447 C
atom 7.4756135345240597 5.3100703999999999 9.8922466601429289 C
atom 2.2595698085744726 2.0110703999999995 7.2500476908441236 C
atom 1.7178083768041990 1.7794805999999999 2.1919280376795442 C
atom 9.1379194042286453 5.0784805999999998 3.5221700793161399 C
atom 8.5776471852614904 4.8185193999999996 9.2362681963118245 C
atom 1.1575361578370431 1.5195194000000001 7.9060261546752280 C
atom 1.1542137443743035 2.9618422000000000 1.8273685778152193 C
atom 9.7015140366585406 6.2608422000000008 3.8867295391804650 C
atom 9.1412418176913857 3.6361577999999994 9.6008276561761487 C
atom 0.5939415254071476 0.3371577999999998 7.5414666948109028 C
atom 0.9892016024709093 5.0026035999999996 0.4365570961384703 C
atom 9.8665261785619354 1.7036035999999999 5.2775410208572140 C
atom 9.3062539595947786 1.5953964000000000 10.9916391378528981 C
atom 0.4289293835037534 4.8943963999999998 6.1506552131341543 C
atom 3.1326481527679624 4.8561280000000009 10.7105055104967111 C
atom 6.6025351903305705 1.5571280000000014 6.4317888404903414 C
atom 7.1628074092977263 1.7418719999999994 0.7176907234946579 C
atom 3.6929203717351182 5.0408719999999994 4.9964073935010269 C
atom 3.5997748053903891 5.5093299999999994 9.4625464817448535 C
atom 6.1354085377081438 2.2103299999999999 7.6797478692421990 C
atom 6.6956807566752996 1.0886700000000002 1.9656497522465153 C
atom 4.1600470243575449 4.3876700000000000 3.7484483647491689 C
atom 0.3061871650689579 5.6914347999999997 10.8487866849280064 O
atom 9.4289961780295748 2.3924348000000002 6.2935076660590461 O
atom 9.9892683969967297 0.9065651999999997 0.5794095490633624 O
atom 0.8664593840361138 4.2055651999999997 5.1346885679323213 O
atom 0.0025816061772732 5.3615347999999994 1.0913927403461756 O
atom 10.8531461748555706 2.0625347999999999 4.6227053766495088 O
atom 10.2928739558884157 1.2364652000000000 10.3368034936451920 O
atom -0.5576906127898826 4.5354652000000000 6.8054908573418604 O
atom 2.2395026181601145 3.8776446000000004 10.4236577850235275 O
atom 7.4956807249384170 0.5786446000000007 6.7186365659635250 O
atom 8.0559529439055737 2.7203553999999994 1.0045384489678413 O
atom 2.7997748371272704 6.0193553999999994 4.7095596680278433 O
atom 4.5472815268971258 5.1424812000000006 0.4045581466832944 O
atom 6.3084462541357196 1.8434812000000005 5.3095399703123896 O
atom 5.7481740351685637 1.4555187999999994 11.0236380873080737 O
atom 3.9870093079299695 4.7545187999999996 6.1186562636789787 O
atom 3.1053850397588350 1.6297059999999999 11.2796296829494800 H
atom 6.6297983033396983 4.9287060000000000 5.8626646680375725 H
atom 7.1900705223068542 4.9682940000000002 0.1485665510418878 H
atom 3.6656572587259908 1.6692940000000001 5.5655315659537958 H
atom 3.2741160566167071 0.3496940000000000 1.8627959861405932 H
atom 7.5816117244161383 3.6486940000000003 3.8513021308550908 H
atom 7.0213395054489824 6.2483059999999995 9.5654002478507749 H
atom 2.7138438376495513 2.9493060000000000 7.5768941031362775 H
atom 1.2911266017577356 1.1678460000000002 3.0856129831776697 H
atom 9.5646011792751100 4.4668460000000003 2.6284851338180144 H
atom 9.0043289603079533 5.4301539999999999 8.3425832508136981 H
atom 0.7308543827905798 2.1311539999999995 8.7997111001733543 H
atom 0.3044661913417383 3.3517839999999999 2.3553512438256212 H
atom 10.5512615896911068 0.0527840000000000 3.3587468731700629 H
atom 9.9909893707239501 3.2462160000000000 9.0728449901657484 H
atom -0.2558060276254175 6.5452159999999999 8.0694493608213040 H
atom 4.2863606833179002 6.3010899999999994 9.7253949951266545 H
atom 5.4488226597806326 3.0020900000000004 7.4168993558603979 H
atom 6.0090948787477885 0.2969100000000003 1.7028012388647138 H
atom 4.8466329022850561 3.5959100000000004 4.0112968781309704 H
atom 2.8337236939147115 5.8260340000000008 8.8225674926413369 H
atom 6.9014596491838205 2.5270340000000000 8.3197268583457156 H
atom 7.4617318681509763 0.7719659999999992 2.6056287413500319 H
atom 3.3939959128818673 4.0709659999999994 3.1084693756456523 H
atom 4.0688927827905790 4.8033440000000009 8.7997111001733543 H
atom 5.6662905603079539 1.5043440000000012 8.3425832508136981 H
atom 6.2265627792751097 1.7946559999999994 2.6284851338180149 H
atom 4.6291650017577348 5.0936559999999993 3.0856129831776697 H
atom -0.3083094683620276 6.5518140000000002 10.6773637414181355 H
atom 10.0434928114605597 3.2528140000000008 6.4649306095689170 H
atom 10.6037650304277165 0.0461859999999993 0.7508324925732328 H
atom 0.2519627506051282 3.3451859999999991 4.9632656244224513 H
